
Welcome to IBM(R) ILOG(R) CPLEX(R) Interactive Optimizer 12.7.1.0
  with Simplex, Mixed Integer & Barrier Optimizers
5725-A06 5725-A29 5724-Y48 5724-Y49 5724-Y54 5724-Y55 5655-Y21
Copyright IBM Corp. 1988, 2017.  All Rights Reserved.

Type 'help' for a list of available commands.
Type 'help' followed by a command name for more
information on commands.

CPLEX> New value for default parallel thread count: 1
CPLEX> New value for time limit in seconds: 3600
CPLEX> Problem 'eil76_m30.lp' read.
Read time = 0.19 sec. (18.80 ticks)
CPLEX> CPXPARAM_TimeLimit                               3600
CPXPARAM_Threads                                 1
CPXPARAM_Read_APIEncoding                        "UTF-8"
Tried aggregator 1 time.
MIP Presolve modified 175500 coefficients.
Reduced MIP has 8040 rows, 171076 columns, and 1023990 nonzeros.
Reduced MIP has 171000 binaries, 75 generals, 0 SOSs, and 0 indicators.
Presolve time = 0.58 sec. (770.10 ticks)
Tried aggregator 1 time.
Reduced MIP has 8040 rows, 171076 columns, and 1023990 nonzeros.
Reduced MIP has 171000 binaries, 76 generals, 0 SOSs, and 0 indicators.
Presolve time = 0.66 sec. (538.81 ticks)
Probing time = 0.19 sec. (82.40 ticks)
Clique table members: 337703.
MIP emphasis: balance optimality and feasibility.
MIP search method: dynamic search.
Parallel mode: none, using 1 thread.
Root relaxation solution time = 56.46 sec. (94934.66 ticks)

        Nodes                                         Cuts/
   Node  Left     Objective  IInf  Best Integer    Best Bound    ItCnt     Gap

      0     0       43.9457   269                     43.9457    58102         
      0     0       44.9681   241                    Cuts: 48    98821         
      0     0       45.0167   321                   Cuts: 106   130033         
      0     0       45.0167   320                    Cuts: 47   130740         
      0     0       45.0167   323                    Cuts: 39   131236         
Heuristic still looking.
Heuristic still looking.
      0     2       45.0167   235                     45.0167   131236         
Elapsed time = 357.30 sec. (580476.37 ticks, tree = 0.01 MB, solutions = 0)
      1     3       45.0652   277                     45.0167   132434         
      2     4       45.0175   384                     45.0175   133540         
      3     5       45.0500   356                     45.0175   133870         
      4     6       45.0963   279                     45.0500   134503         
      5     7       45.0500   905                     45.0500   135398         
      6     8       45.0573   277                     45.0500   135672         
      7     9       45.0763   467                     45.0500   136539         
      8    10       45.1373   293                     45.0500   138121         
      9    11       45.2348   369                     45.0500   139064         
     10    12       45.1335   301                     45.0500   139809         
Elapsed time = 381.20 sec. (621699.18 ticks, tree = 1.53 MB, solutions = 0)
     12    14       45.2568   304                     45.0500   140180         
     13    15       45.2185   327                     45.0500   141590         
     14    16       45.1380   427                     45.0500   141901         
     16    18       45.4395   521                     45.0500   143983         
     17    19       52.0000   471                     45.0500   159513         
     20    22       45.1875   520                     45.0500   159857         
     21    23       45.4468   321                     45.0500   161294         
     23    25       50.2283   436                     45.0500   174462         
     25    27       45.3012   449                     45.0500   175256         
     26    28       45.3886   381                     45.0500   176152         
Elapsed time = 441.29 sec. (718039.88 ticks, tree = 3.88 MB, solutions = 0)
     30    32       45.4162   362                     45.0500   176519         
     32    34       45.4328   394                     45.0500   176883         
     33    35       49.0000   380                     45.0500   185193         
     37    39       45.5857   317                     45.0500   185474         
     40    42       45.4754   376                     45.0500   185908         
     42    44       45.5049   389                     45.0500   186337         
     43    45       48.1087   325                     45.0500   196817         
     44    46       45.5312   350                     45.0500   196979         
     45    47       45.5521   367                     45.0500   197139         
     47    49       45.7655   397                     45.0500   197478         
Elapsed time = 480.72 sec. (784041.11 ticks, tree = 7.20 MB, solutions = 0)
     49    51       45.8062   463                     45.0500   197949         
     52    54       45.8289   428                     45.0500   198537         
     54    56       45.9729   472                     45.0500   198989         
     56    58       46.3009   488                     45.0500   200701         
     59    61       45.9515   439                     45.0500   201166         
     60    62       46.0987   382                     45.0500   203224         
     62    64       46.0487   422                     45.0500   203820         
     64    66       46.2481   402                     45.0500   204351         
     67    69       52.0000   302                     45.0500   204743         
     68    70       46.2840   417                     45.0500   205142         
Elapsed time = 535.63 sec. (869808.74 ticks, tree = 10.53 MB, solutions = 0)
     70    72       46.5543   405                     45.0500   207227         
     72    74       46.6027   397                     45.0500   208380         
     74    76       46.4525   406                     45.0500   209642         
     75    77       62.0000   439                     45.0500   232392         
     76    78       46.5099   430                     45.0500   232832         
     77    79       66.0000   251                     45.0500   232932         
     78    80       46.8378   394                     45.0500   233400         
     80    82       46.8437   317                     45.0500   234230         
     81    83       50.0435   407                     45.0500   234642         
     86    88       47.0239   300                     45.0500   234958         
Elapsed time = 576.79 sec. (939451.43 ticks, tree = 13.55 MB, solutions = 0)
     91    93       62.0978   215                     45.0500   235633         
     97    99       62.0978   249                     45.0500   235983         
    103   105       62.0978   254                     45.0500   236509         
    115   115    infeasible                           45.0500   236931         
    128   128       89.0000   250                     45.0500   237334         
    138   137       89.0000   270                     45.0500   237887         
    153   150       89.0000   209                     45.0500   238400         
    168   163       89.0000   183                     45.0500   238982         
    187   178      101.5000   144                     45.0500   239664         
    219   202      236.4783    81                     45.0500   240243         
Elapsed time = 584.02 sec. (949832.59 ticks, tree = 32.32 MB, solutions = 0)
*   248   211      integral     0      297.0000       45.0500   240619   84.83%
    249   210       45.9667   740      297.0000       45.0500   240877   84.83%
    251   212       46.5818   680      297.0000       45.0500   241484   84.83%
    252   213       46.0000   529      297.0000       45.0500   242594   84.83%
    253   214       46.0167   593      297.0000       45.0500   243699   84.83%
    255   216       46.1921   556      297.0000       45.0500   244719   84.83%
    256   217       49.0000   560      297.0000       45.0500   245106   84.83%
    258   219       46.2058   458      297.0000       45.0500   246073   84.83%
    259   220       46.2333   645      297.0000       45.0500   246659   84.83%
    260   221       46.3144   438      297.0000       45.0500   247757   84.83%
    261   222       46.3671   480      297.0000       45.0500   248098   84.83%
Elapsed time = 601.05 sec. (978777.09 ticks, tree = 35.37 MB, solutions = 1)
    262   222       51.7826   326      297.0000       45.0500   248616   84.83%
    263   223       46.3671   434      297.0000       45.0500   248962   84.83%
    264   224       46.9480   421      297.0000       45.0500   249828   84.83%
    266   226       46.8182   468      297.0000       45.0500   250683   84.83%
    268   228       46.7011   404      297.0000       45.0500   252723   84.83%
    269   229       52.0000   454      297.0000       45.0500   263478   84.83%
    271   231       46.7973   452      297.0000       45.0500   264047   84.83%
    273   233       56.0000   464      297.0000       45.0500   276319   84.83%
    275   235       66.0000   388      297.0000       45.0500   311961   84.83%
    276   236       46.7759   431      297.0000       45.0500   312337   84.83%
Elapsed time = 715.25 sec. (1156774.56 ticks, tree = 37.73 MB, solutions = 1)
    278   238       68.3043   403      297.0000       45.0500   330903   84.83%
    281   241       46.8227   393      297.0000       45.0500   331542   84.83%
    283   243       46.9642   388      297.0000       45.0500   331895   84.83%
    284   244       51.0978   441      297.0000       45.0500   344379   84.83%
    286   244       51.0978   397      297.0000       45.0500   378190   84.83%
    287   245       51.0978   436      297.0000       45.0500   468323   84.83%
    288   246       51.0978   307      297.0000       45.0500   503718   84.83%
    289   247       51.0978   348      297.0000       45.0500   540175   84.83%
    290   248       51.0978   340      297.0000       45.0500   568564   84.83%
    291   249       51.0978   354      297.0000       45.0500   601296   84.83%
Elapsed time = 1163.72 sec. (1843738.16 ticks, tree = 39.63 MB, solutions = 1)
    292   250       58.0000   412      297.0000       45.0500   625363   84.83%
    293   251       51.0978   319      297.0000       45.0500   650512   84.83%
    294   252       51.0978   356      297.0000       45.0500   654273   84.83%
    295   253       52.1739   346      297.0000       45.0500   684893   84.83%
    296   254       51.0978   355      297.0000       45.0500   744162   84.83%
    297   255       51.0978   354      297.0000       45.0500   778856   84.83%
    298   256       51.0978   333      297.0000       45.0500   810405   84.83%
    299   257       51.0978   436      297.0000       45.0500   816985   84.83%
    300   258       66.0000   343      297.0000       45.0500   847349   84.83%
    301   259       51.0978   345      297.0000       45.0500   880651   84.83%
Elapsed time = 1729.08 sec. (2745693.41 ticks, tree = 41.38 MB, solutions = 1)
    302   260       51.0978   367      297.0000       45.0500   913563   84.83%
    303   261       51.0978   333      297.0000       45.0500   943356   84.83%
    304   262       51.0978   310      297.0000       45.0500   972097   84.83%
    305   263       51.0978   347      297.0000       45.0500  1000619   84.83%
    307   265       51.0978   345      297.0000       45.0500  1033212   84.83%
    308   266       62.0000   399      297.0000       45.0500  1070546   84.83%
    309   267       51.0978   338      297.0000       45.0500  1114445   84.83%
    310   268       52.0652   372      297.0000       45.0500  1183816   84.83%
    311   269       60.0000   482      297.0000       45.0500  1217148   84.83%
    312   270       52.0652   309      297.0000       45.0500  1240336   84.83%
Elapsed time = 2297.84 sec. (3644215.99 ticks, tree = 43.13 MB, solutions = 1)
    313   271       52.0652   338      297.0000       45.0500  1266968   84.83%
    314   272       52.0652   373      297.0000       45.0500  1270475   84.83%
    315   273       52.0652   368      297.0000       45.0500  1296163   84.83%
    316   273       70.0000   392      297.0000       45.0500  1326472   84.83%
    317   274       52.0652   332      297.0000       45.0500  1351008   84.83%
    318   275       52.0652   310      297.0000       45.0500  1376352   84.83%
    319   276       52.0652   348      297.0000       45.0500  1398648   84.83%
    320   277       52.0652   300      297.0000       45.0500  1424924   84.83%
    321   278       52.0652   367      297.0000       45.0500  1427247   84.83%
    322   279       52.0652   292      297.0000       45.0500  1441231   84.83%
Elapsed time = 2689.44 sec. (4268851.67 ticks, tree = 44.57 MB, solutions = 1)
    323   280       52.0652   298      297.0000       45.0500  1467176   84.83%
    324   281       52.1141   323      297.0000       45.0500  1490634   84.83%
    325   282       52.0652   337      297.0000       45.0500  1515198   84.83%
    326   283       52.0652   324      297.0000       45.0500  1519739   84.83%
    327   284       52.0652   270      297.0000       45.0500  1542882   84.83%
    328   285       52.0652   270      297.0000       45.0500  1542885   84.83%
    329   286       52.0652   319      297.0000       45.0500  1560644   84.83%
    330   287       52.0652   268      297.0000       45.0500  1577156   84.83%
    331   288       52.0652   329      297.0000       45.0500  1578636   84.83%
    333   288       52.0652   282      297.0000       45.0500  1598357   84.83%
Elapsed time = 2917.19 sec. (4648946.30 ticks, tree = 46.01 MB, solutions = 1)
    334   289       52.0652   339      297.0000       45.0500  1600127   84.83%
    335   290       52.0652   267      297.0000       45.0500  1622861   84.83%
    337   292       52.0652   288      297.0000       45.0500  1640916   84.83%
    339   294       56.5217   343      297.0000       45.0500  1660801   84.83%
    340   295       52.0652   299      297.0000       45.0500  1675389   84.83%
    342   297       56.5652   352      297.0000       45.0500  1692746   84.83%
    347   302       52.0652   298      297.0000       45.0500  1695377   84.83%
    350   303       52.0652   263      297.0000       45.0500  1711278   84.83%
    352   305       52.0652   275      297.0000       45.0500  1720722   84.83%
    364   315      116.0000   203      297.0000       45.0500  1734618   84.83%
Elapsed time = 3059.45 sec. (4877739.48 ticks, tree = 50.40 MB, solutions = 1)
    378   323      102.2283   227      297.0000       45.0500  1749959   84.83%
    440   374      154.0000    77      297.0000       45.0500  1751078   84.83%
*   488   406      integral     0      255.0000       45.0500  1751795   82.33%
*   499   403      integral     0      223.0000       45.0500  1751916   79.80%
    501   403       45.0500   957      223.0000       45.0500  1752170   79.80%
    502   404       47.0000   383      223.0000       45.0500  1771132   79.80%
    503   405       47.0000   460      223.0000       45.0500  1809149   79.80%
    505   407       47.0000   443      223.0000       45.0500  1846410   79.80%
    506   408       47.0000   545      223.0000       45.0500  1893337   79.80%
    510   412       47.0000   577      223.0000       45.0500  1924959   79.80%
    511   413       47.0000   524      223.0000       45.0500  1967376   79.80%

Clique cuts applied:  19
Implied bound cuts applied:  5
Mixed integer rounding cuts applied:  42
Zero-half cuts applied:  34

Root node processing (before b&c):
  Real time             =  337.12 sec. (565472.51 ticks)
Sequential b&c:
  Real time             = 3262.89 sec. (5155514.32 ticks)
                          ------------
Total (root+branch&cut) = 3600.01 sec. (5720986.83 ticks)

Solution pool: 3 solutions saved.

MIP - Time limit exceeded, integer feasible:  Objective =  2.2300000000e+02
Current MIP best bound =  4.5050000000e+01 (gap = 177.95, 79.80%)
Solution time = 3600.01 sec.  Iterations = 2010889  Nodes = 512 (413)
Deterministic time = 5720987.32 ticks  (1589.16 ticks/sec)

CPLEX> Incumbent solution
Variable Name           Solution Value
y                           223.000000
x6                            1.000000
x5821                         1.000000
x11584                        1.000000
x17349                        1.000000
x23133                        1.000000
x28917                        1.000000
x34699                        1.000000
x40493                        1.000000
x46220                        1.000000
x52047                        1.000000
x57831                        1.000000
x63592                        1.000000
x69380                        1.000000
x75126                        1.000000
x80900                        1.000000
x86704                        1.000000
x92458                        1.000000
x98222                        1.000000
x103984                       1.000000
x109749                       1.000000
x115531                       1.000000
x121313                       1.000000
x127116                       1.000000
x132883                       1.000000
x138691                       1.000000
x144433                       1.000000
x150242                       1.000000
x156012                       1.000000
x161798                       1.000000
x167553                       1.000000
x381                          1.000000
x9121                         1.000000
x12161                        1.000000
x19077                        1.000000
x26677                        1.000000
x30933                        1.000000
x37849                        1.000000
x44993                        1.000000
x50541                        1.000000
x56697                        1.000000
x63081                        1.000000
x67717                        1.000000
x74405                        1.000000
x77901                        1.000000
x83525                        1.000000
x91429                        1.000000
x95533                        1.000000
x100397                       1.000000
x109441                       1.000000
x114001                       1.000000
x119929                       1.000000
x122285                       1.000000
x128365                       1.000000
x136877                       1.000000
x141665                       1.000000
x146833                       1.000000
x155117                       1.000000
x157397                       1.000000
x166973                       1.000000
x171153                       1.000000
x108606                       1.000000
x130343                       1.000000
x104048                       1.000000
x143647                       1.000000
x105344                       1.000000
x13841                        1.000000
x122522                       1.000000
x140537                       1.000000
x126174                       1.000000
x30491                        1.000000
x131194                       1.000000
x107407                       1.000000
x160456                       1.000000
x30574                        1.000000
x31639                        1.000000
x22520                        1.000000
x13933                        1.000000
x139106                       1.000000
x107871                       1.000000
x34532                        1.000000
x14471                        1.000000
x104534                       1.000000
x16987                        1.000000
x107960                       1.000000
x139577                       1.000000
x105990                       1.000000
x25279                        1.000000
x26648                        1.000000
x127274                       1.000000
x105159                       1.000000
x104248                       1.000000
x107821                       1.000000
x135486                       1.000000
x130851                       1.000000
x110105                       1.000000
x47102                        1.000000
x116339                       1.000000
x106994                       1.000000
x122045                       1.000000
x18917                        1.000000
x13448                        1.000000
x109589                       1.000000
x106550                       1.000000
x34655                        1.000000
x30020                        1.000000
u2                            5.000000
u3                            1.000000
u4                            6.000000
u7                            1.000000
u8                           11.000000
u9                            5.000000
u10                           1.000000
u13                           3.000000
u14                           3.000000
u15                          42.000000
u18                          41.000000
u19                          10.000000
u20                           1.000000
u22                          41.000000
u23                          40.000000
u24                           2.000000
u25                           1.000000
u26                           2.000000
u27                           8.000000
u28                          45.000000
u31                           4.000000
u34                          12.000000
u39                           3.000000
u40                           3.000000
u41                           4.000000
u42                          45.000000
u43                          45.000000
u45                          45.000000
u46                           9.000000
u47                          44.000000
u48                          45.000000
u50                          39.000000
u51                           1.000000
u52                           7.000000
u53                           2.000000
u54                          45.000000
u55                          40.000000
u57                          45.000000
u58                          45.000000
u59                           2.000000
u62                           4.000000
u65                           2.000000
u69                           1.000000
u72                           2.000000
u73                          14.000000
u74                          13.000000
u75                          44.000000
u76                          43.000000
All other variables in the range 1-171076 are 0.
CPLEX> 